0 0 0 0
0 1 0 0
0 2 0 0
0 3 0 72
0 4 0 10
0 5 0 51
0 6 0 8
0 7 0 9
0 8 0 10
0 9 0 22
0 10 0 16
0 11 0 23
0 12 0 35
0 13 0 87
0 14 0 32
0 15 0 34
0 16 0 17
0 17 0 44
0 18 0 16
0 19 0 44
0 20 0 63
0 21 0 48
0 22 0 15
0 23 0 45
0 24 0 58
0 25 0 45
0 26 0 31
0 27 0 60
0 28 0 55
0 29 0 39
0 30 0 62
0 31 0 78
0 32 0 32
0 33 0 52
0 34 0 75
0 35 0 78
0 36 0 71
0 37 0 22
0 38 0 63
0 39 0 58
0 40 0 81
0 41 0 86
0 42 0 80
0 43 0 102
0 44 0 49
0 45 0 62
0 46 0 86
0 47 0 89
0 48 0 93
0 49 0 72
0 50 0 49
0 51 0 95
0 52 0 71
0 53 0 104
0 54 0 97
0 55 0 97
0 56 0 113
0 57 0 104
0 58 0 111
0 59 0 121
0 60 0 117
0 61 0 123
